c Lingeling SAT Solver
c 
c Version ala b02aa1a04343558c4252b5f4a723be021964f652
c 
c Copyright (C) 2010-2012 Armin Biere JKU Linz Austria.
c All rights reserved.
c 
c released Sat Oct 13 14:05:26 CEST 2012
c compiled Sat Feb 16 02:48:12 EST 2013
c 
c gcc (Debian 4.4.5-8) 4.4.5
c -Wall -O3 -DNLGLOG -DNDEBUG -DNCHKSOL -DNLGLPICOSAT 
c Linux greencar2 2.6.32-5-amd64 x86_64
c 
c reading input file p45.cnf
c no embedded options
c found 'p cnf 229693 713638' header
c read 229693 variables, 713638 clauses, 1485069 literals in 0.0 seconds
c
c feature vars 229693
c feature lits.total 1485069
c feature lits.pos 790536
c feature lits.neg 694533
c feature clauses.total 713638
c feature clauses.unit 85421
c feature clauses.bin 502403
c feature clauses.trn 124414
c feature clauses.lrg 1400
c feature cog.val.min 1
c feature cog.val.avg 102365
c feature cog.val.max 221351
c feature cog.var.min 1
c feature cog.var.avg 114847
c feature cog.var.max 229692
c
c
c --abstime=0
c --acts=2
c --actavgmax=120
c --actstdmin=20
c --actstdmax=80
c --agile=23
c --bias=2
c --block=1
c --blkrtc=0
c --blkclslim=2000
c --blkocclim=2000
c --blkmaxeff=2147483647
c --blkmineff=10000000
c --blkreleff=20
c --card=0
c --cce=3
c --ccemaxeff=100000000
c --ccemineff=5000000
c --ccereleff=3
c --check=0
c --cgrclsr=1
c --cgrmaxority=20
c --cgrmaxeff=8000000
c --cgrmineff=200000
c --cgreleff=1
c --cgrexteq=1
c --cgrextand=1
c --cgrextunits=1
c --cgrextite=1
c --cgrextxor=1
c --cliff=1
c --cliffreleff=8
c --cliffmineff=10000000
c --cliffmaxeff=100000000
c --compact=0
c --decompose=1
c --defragint=10000000
c --defragfree=50
c --elim=1
c --elmrtc=0
c --elmblk=1
c --elmclslim=1000
c --elmocclim=1000
c --elmaxeff=100000000
c --elmineff=5000000
c --elmreleff=10
c --sleeponabort=0
c --exitonabort=0
c --flipping=1
c --flipint=2
c --flipdur=50
c --fliptop=1
c --force=0
c --gauss=1
c --gaussextrall=1
c --gaussmaxor=20
c --gaussexptrn=1
c --gaussmaxeff=50000000
c --gaussmineff=2000000
c --gaussreleff=2
c --gluescale=2
c --gluekeep=0
c --inprocessing=1
c --cintinc=10000
c --irrlim=20
c --lift=1
c --lftmaxeff=20000000
c --lftmineff=500000
c --lftreleff=6
c --lhbr=1
c --lkhd=1
c --clim=-1
c --mocint=1000
c --move=2
c --log=-1
c --otfs=1
c --phase=0
c --phaseneginit=0
c --plain=0
c --probe=1
c --prbasicmaxeff=100000000
c --prbasicmineff=1000000
c --prbasicreleff=10
c --prbasic=1
c --prbasicroundlim=9
c --queuemergelim=10000
c --queuefactor=833
c --queueinc=20
c --rmincpen=4
c --seed=0
c --smallirr=90
c --smallve=1
c --smallvevars=12
c --randec=1
c --randecint=1000
c --redfixed=0
c --redlbound=0
c --redlexpfac=10
c --redldoutfac=0
c --redloutinc=10000
c --redlinit=1000
c --redlinc=1000
c --redinoutinc=100
c --redlmininc=10
c --redlmaxinc=200
c --redlminrel=10
c --redlmaxrel=300
c --redlminabs=500
c --redlmaxabs=1000000
c --reduce=1
c --restart=2
c --restartint=5
c --rstinoutinc=110
c --simplify=1
c --simpdelay=100
c --simpen=4
c --sizepen=1000000
c --sizemaxpen=3
c --sortlits=0
c --syncint=111111
c --termint=122222
c --ternres=1
c --ternresrtc=0
c --trnrmineff=4000000
c --trnrmaxeff=40000000
c --trnreleff=10
c --transred=1
c --trdmineff=100000
c --trdmaxeff=2000000
c --trdreleff=10
c --unhide=1
c --unhdextstamp=1
c --unhdhbr=0
c --unhdmaxeff=20000000
c --unhdmineff=1000000
c --unhdreleff=4
c --unhdlnpr=3
c --unhdroundlim=5
c --verbose=1
c --witness=1
c [limits] no conflict limit
c [limits] simplification delayed by 100 to 100 conflicts
c 
c  seconds         irredundant          redundant clauses agility   height
c          variables clauses conflicts large binary ternary    glue         MB
c 
c *    0.0  127614   536751         0       0      0     0  64  0.0   0.0   42
c [cut-width] 179364, max 276009, min4 122052 at 75%, min10 32549 at 90%
c [decision-order] bias 1, old 1
c [queue-schedule-all-variables]
c s    0.0  127614   536751         0       0      0     0  64  0.0   0.0   42
c [simplification-1] limit hit at 100 conflicts
c [simplification-1] simplification penalty of 4
c [ternres-1] limit 4000000 with penalty 0 = 0 + 0
c [ternres-1] all 127614 free variables schedulable
c [ternres-1] 0 ternary resolvents (0 bin, 0 trn)
c [ternres-1] 28500 variables remain 22% (99114 retained)
c [gauss-1] limit 2000000 penalty 0 = 0 + 0
c [gauss-1] extracted 164521 xors of average arity 2.0
c [gauss-1] connected 329043 occurrences of 113891 variables (average 2.9)
c [gauss-1] limit 2000000 penalty 0 = 0 + 0
c d    1.5   59049   268904       100     100      0     0  41  5.7 284.6   21
c [gauss-1] exported 0 unary, 4 binary and 0 ternary equations
c G    1.5   59049   268904       100     100      0     0  41  5.7 284.6   21
c [basicprobe-1] limit 1000000 penalty 0 = 0 + 0
c [basicprobe-1-0] 3927 probes remain 7% after last round
c [basicprobe-1-0] 2 units = 2 failed (100%) + 0 lifted (0%)
c [basicprobe-1-0] removed 2 variables, found 2451 hbrs
c p    1.7   59047   268904       100     100   2451     0  41  5.7 284.6   26
c [cgrclsr-1] limit 200000 penalty 0 = 0 + 0
c [cgrclsr-1] all 59047 free variables schedulable
c [cgrclsr-1] fully completed congruence closure
c [lift-1] limit 500000 with penalty 0 = 0 + 0
c [lift-1] using 59047 probes 100%
c [lift-1] 59016 variables remain 100% (31 retained)
c [cliff-1] limit of 10000000 steps penalty 0 = 0 + 0
c [cliff-1] failed 0, lifted 4
c K    2.7   59043   268894       100     100  16489     0  41  5.7 284.6   26
c [unhide-1] limit 1000000 with penalty 0 = 0 + 0
c [unhide-1-1] 0 units, 1 failed, 21453 tauts, 0 hbrs, 44 literals
c u    3.0   59042   247422       100     100  16489     0  41  5.7 284.6   26
c [transred-1] limit 100000 with penalty 0 = 0 + 0
c t    3.0   59042   247421       100     100  16479     0  41  5.7 284.6   26
c [block-1] scheduling all variables this time
c [block-1] scheduled 59042 variables 100%
c [block-1] limit of 10000000 steps penalty 0 = 0 + 0
c [block-1] fully completed blocked clause elimination
c [block-1] transition to [ all 0 rem 0 ] state
c [block-1] eliminated 4400 blocked clauses
c k    3.3   59042   243016       100     100  16479  4400  41  5.7 284.6   21
c [cce-1] scheduling all variables this time
c [cce-1] limit of 10000000 steps penalty 0 = 0 + 0
c [cce-1] incomplete covered clause elimination 53943 not tried 91%
c [cce-1] transition to [ all 1 rem 1 ] state
c [cce-1] eliminated 105 covered clauses
c E    4.0   59040   242911       100     100  22199  4400  41  5.7 284.6   21
c [elim-1] scheduling all variables this time
c [elim-1] scheduled 59040 variables 100%
c [elim-1] limit of 5000000 steps penalty 0 = 0 + 0
c [elim-1] incomplete variable elimination 44394 not tried 75%
c [elim-1] transition to [ all 1 rem 1 ] state
c [elim-1] eliminated 6258 = 11% variables out of 59040
c e    5.6   52782   239123       100      57   8010   542  41  5.7 284.6   21
c [phase-1] phase bias: 515 positive 19%, 2152 negative 81%
c [simplification-1] removed 74832 variables 58%
c [simplification-1] limit increments divided by 30
c [simplification-1] arithmetic increase of conflict limit interval by 333
c [simplification-1] new irredundant limit 2343390
c [simplification-1] new conflict limit 433
c [simplification-1] simplification penalty reduced to 3
c R    5.8   52782   239123       412     348   8016   556  22 13.2 359.8   26
c [simplification-2] limit hit at 433 conflicts
c [simplification-2] simplification penalty of 3
c [ternres-2] limit 2000000 with penalty 1 = 1 + 0
c [ternres-2] 11794 schedulable variables 22%
c [ternres-2] 0 ternary resolvents (0 bin, 0 trn)
c [ternres-2] fully completed ternary resolution
c [gauss-2] limit 2000000 penalty 0 = 0 + 0
c [gauss-2] extracted 815 xors of average arity 3.0
c [gauss-2] connected 2445 occurrences of 1245 variables (average 2.0)
c [gauss-2] limit 2000000 penalty 0 = 0 + 0
c [gauss-2] fully completed
c [gauss-2] exported 0 unary, 0 binary and 0 ternary equations
c G    6.1   52782   239123       433     368   8017   556  19 12.9 320.3   21
c [basicprobe-2] limit 1000000 penalty 0 = 0 + 0
c [basicprobe-2-0] 3804 probes remain 7% after last round
c [basicprobe-2-0] removed 0 variables, found 1112 hbrs
c p    6.3   52782   239123       433     368   9129   555  19 12.9 320.3   26
c [cgrclsr-2] limit 100000 penalty 1 = 1 + 0
c [cgrclsr-2] all 52782 free variables schedulable
c [cgrclsr-2] fully completed congruence closure
c [lift-2] limit 250000 with penalty 1 = 1 + 0
c [lift-2] using 52755 probes 100%
c [lift-2] 52740 variables remain 100% (42 retained)
c [cliff-2] limit of 10000000 steps penalty 0 = 0 + 0
c [cliff-2] failed 0, lifted 0
c [unhide-2] limit 1000000 with penalty 0 = 0 + 0
c [unhide-2-2] 0 units, 0 failed, 1713 tauts, 0 hbrs, 534 literals
c u    7.4   52782   239103       433     367   8967   554  19 12.9 320.3   26
c [transred-3] limit 100000 with penalty 0 = 0 + 0
c t    7.4   52782   239102       433     367   8964   554  19 12.9 320.3   26
c [block-2] scheduling all variables this time
c [block-2] scheduled 52782 variables 100%
c [block-2] limit of 10000000 steps penalty 0 = 0 + 0
c [block-2] fully completed blocked clause elimination
c [block-2] transition to [ all 0 rem 0 ] state
c [block-2] eliminated 0 blocked clauses
c [cce-2] 50185 variables 95% will be scheduled this time
c [cce-2] limit of 10000000 steps penalty 0 = 0 + 0
c [cce-2] 49662 variables 94% remain to be tried next time
c [cce-2] transition to [ all 0 rem 1 ] state
c [cce-2] eliminated 334 covered clauses
c E    8.2   52782   238768       433     367   9663   554  19 12.9 320.3   21
c [elim-2] 44339 variables 84% will be scheduled this time
c [elim-2] scheduled 44339 variables 84%
c [elim-2] limit of 5000000 steps penalty 0 = 0 + 0
c [elim-2] 34356 variables 65% remain to be tried next time
c [elim-2] transition to [ all 0 rem 1 ] state
c [elim-2] eliminated 1063 = 2% variables out of 52782
c e    9.8   51719   238320       433     339   6619   550  19 12.9 320.3   21
c [phase-2] phase bias: 4 positive 67%, 2 negative 33%
c [simplification-2] removed 1063 variables 2%
c [simplification-2] limit increments divided by 2
c [simplification-2] arithmetic increase of conflict limit interval by 5000
c [simplification-2] new irredundant limit 2343390
c [simplification-2] new conflict limit 5766
c [simplification-2] simplification penalty reduced to 2
c R   10.3   51719   238320       982     818   6644   592   3  9.1 300.7   26
c -   10.5   51719   238320      1225     501   6666   625   4  8.1 257.3   26
c 1   11.2   51719   238320      2248    1426   6697   690   5  7.5 283.6   26
c 
c  seconds         irredundant          redundant clauses agility   height
c          variables clauses conflicts large binary ternary    glue         MB
c 
c blkd: 2 bces, 4400 removed, 1412814 resolutions, 3930713 steps
c blkd: 4400 blocking literals 1%, 0 pure
c cces: 2 cces, 431 eliminated, 431 ate 100%, 0 abce 0%
c cces: 11244 probed, 0 lifted, 2 failed
c clff: 2 cliffs, 4 lifted, 0 failed
c clff: 8520 decisions, 20003858 steps
c clls: 1 sat, 0 simp, 0 freeze, 0 melt
c clls: 2198707 add, 0 assume,, 0 deref, 0 failed
c clls: 0 cassume, 0 mosat
c coll: 14 gcs, 0 rescored clauses
c cgrs: 2 count, 300000 esteps, 58523 csteps
c cgrs: 0 eqs, 0 units
c cgrs: 0 matched (0 ands 0%, 0 xors 0%, 0 ites 0%)
c cgrs: 0 simplified (0 ands 0%, 0 xors 0%, 0 ites 0%)
c cgrs: 1875 extracted (1597 ands 85%, 278 xors 15%, 0 ites 0%)
c dcps: 3 decompositions, 68565 equivalent 30%
c decs: 41376 decision, 39 random 0.094%
c decs: 8748 flipped 21.143% (in 14 phases)
c elms: 2 elims, 7321 eliminated 3%
c elms: 7321 small 100%, 0 large 0%
c elms: 24761 tried small, 7321 succeeded 30%, 17440 failed 70%
c elms: 0 subsumed, 0 strengthened, 0 blocked
c elms: 313793 copies, 217875 resolutions, 650313 ipos
c elms: 0 subchks, 0 strchks
c frcs: 0 computed, 29.6 - 70.4 average min-cut range
c gaus: 2 extractions, 165336 extracted, 2.0 size, 3 max
c gaus: exported 0 units, 4 binary and 0 ternary equations
c gaus: 0 gc, 8000042 steps, 4000021 extr 50%, 2301755 elim 29%
c glue: 7.5 avg, 2.7 scaled avg
c glue: 0 maxredglue=15 (0%)
c lift: 2 phases, 276 probed (92 level1 33%, 184 level2 67%)
c lift: 0 units, 0 equivalences, 0 implications
c hbrs: 25138 hbrs = 25138 trn 100% + 0 lrg 0%, 1 sub 0%
c lrnd: 2238 clauses, 1443 uips 64%, 28.6 length, 7.5 glue
c ints: 127 luby (11743 steps), 0 inout (0 steps)
c mins: 63940 learned lits, 5% minimized
c move: moved 4831, 431 binary 9%, 4400 ternary 91%
c otfs: str 68 dyn (58 red, 10 irr) 10 drv 15%, 58 rst 85%
c otfs: sub 0 dyn (0 red, 0 irr)
c phas: 2 computed, 2846 set, 519 pos (18%), 2327 neg (82%)
c prbs: 2 basic, 2360 probed, 2 failed, 0 lifted
c prps: 11324743 props, 114 props/dec
c prps: 41% srch, 59% simp, 0% lkhd
c psns: 327787 searches, 40212 hits, 12% hit rate
c queu: 8291 new, 2564 del, 116 maximum priority
c queu: 5711 merged, 1524 collected, 2 gcs
c queu: 2306 deprioritized, 24.0 lines on average
c reds: 1 count, 0 reset, 1 acts 100%, 0 exp 0%
c reds: 1 arithmetic 100%, 1 double 100%
c rmbd: 20 removed, 0 red 0%
c rsts: 90 restarts 71%, 36 skipped 29%
c rsts: 15 kept 16.7% average 51.0%
c simp: 2 count (0 ilim 0%, 0 plim 0%, 2 clim 100%)
c trnr: 2 count, 0 bin, 0 trn, 4936850 steps
c tops: 102088 fixed 44%, 0 iterations
c trds: 4 transitive reductions, 15 removed, 0 failed
c trds: 241 nodes, 322 edges, 201511 steps
c unhd: 2 count, 2 rounds, 2507105 steps
c unhd: 0 non-trivial sccs of average size 0.0
c unhd: 0 units, 0 bin, 0 trn, 0 lrg
c unhd: 1 failed, 1 stamp, 0 lits, 0 bin, 0 trn, 0 lrg
c unhd: 23166 tauts, 0 bin 0%, 1 trn 0%, 0 lrg 0%
c unhd: 23166 tauts, 23165 stamp 100%, 1713 red 7%
c unhd: 0 hbrs, 0 trn 0%, 0 lrg 0%, 0 red 0%
c unhd: 578 strd, 0 bin 0%, 1 trn 0%, 577 lrg 100%, 578 red 100%
c vars: 51719 remaining 23% and 177974 removed 77% out of 229693
c vars: 102088 fixed 44%, 7321 eliminated 3%, 68565 equivalent 30%
c vsts: 53619140 visits, 43% srch, 57% simp, 0% lkhd
c vsts: 5.0 search visits per propagation 10351.3 per conflict
c wchs: 9164310 pushed, 4261185 enlarged, 23 defrags
c 
c scaledglue  added       reduced       forcing      resolved     conflicts
c 
c all      2001 100       501 100      8158 100      3911 100       341 100
c 
c  0          0   0         0   0         0   0         0   0         0   0 
c  1         14   1         0   0        30   0        23   1         1   0 
c  2        690  34       190  38      3372  41      1172  30        61  18 
c  3        728  36<      194  39<     2827  35<     1324  34<      109  32<
c  4        325  16        84  17      1402  17       835  21       113  33 
c  5        202  10        24   5       471   6       493  13        53  16 
c  6         37   2         7   1        51   1        59   2         4   1 
c  7          4   0         2   0         4   0         4   0         0   0 
c  8          1   0         0   0         1   0         1   0         0   0 
c  9          0   0         0   0         0   0         0   0         0   0 
c 10          0   0         0   0         0   0         0   0         0   0 
c 11          0   0         0   0         0   0         0   0         0   0 
c 12          0   0         0   0         0   0         0   0         0   0 
c 13          0   0         0   0         0   0         0   0         0   0 
c 14          0   0         0   0         0   0         0   0         0   0 
c 15          0   0         0   0         0   0         0   0         0   0 
c 
c avg             3.1           2.9           2.9           3.2           3.5
c std             1.1           1.0           0.9           1.1           1.0
c 
c 41376 decisions, 2248 conflicts, 200.7 conflicts/sec
c 11324743 propagations, 1.0 megaprops/sec
c 11.2 seconds, 49.2 MB
c 
c    0.224   2% analysis
c    0.536   5% block
c    0.012   0% bump
c    0.000   0% card
c    1.284  11% cce
c    1.152  10% cliff
c    0.028   0% cutwidth
c    0.088   1% decide
c    0.000   0% force
c    1.060   9% gc
c    0.404   4% cgrclsr
c    0.548   5% decomp
c    0.300   3% defrag
c    3.216  29% elim
c    1.540  14% gauss
c    0.308   3% lift
c    0.028   0% mincls
c    0.080   1% phase
c    0.200   2% probe
c    0.004   0% reduce
c    0.076   1% restart
c    0.152   1% ternres
c    0.020   0% transred
c    0.420   4% unhide
c ==================================
c    0.036   0% preprocessing     0%
c    9.761  87% inprocessing    100%
c ==================================
c    9.797  87% simplifying
c    0.000   0% lookahead
c    1.388  12% search
c ==================================
c   11.201 100% all
c
s SATISFIABLE
